c SAT problem
p wcnf 215 788
1 -60 75 0
1 60 61 0
1 75 3165 0
1 75 3135 0
1 90 -105 0
1 90 3060 0
1 90 91 0
1 90 -3165 0
1 -105 3090 0
1 -105 -3135 0
1 -3120 196 0
1 3120 105 0
1 3120 -3121 0
1 -3120 -120 0
1 3135 -150 0
1 3150 -196 0
1 -3150 -136 0
1 3150 105 0
1 3150 -121 0
1 -3165 136 0
1 3165 -3150 0
1 -3165 -181 0
1 -3165 -3166 0
1 -120 -3105 0
1 120 3135 0
1 -135 3105 0
1 -135 3090 0
1 -135 -3060 0
1 -150 165 0
1 150 -3015 0
1 150 -3060 0
1 -150 -3000 0
1 165 -3120 0
1 165 3090 0
1 165 -3060 0
1 -165 3030 0
1 -165 -3135 0
1 3060 -225 0
1 3060 3075 0
1 3060 135 0
1 3060 105 0
1 -3060 210 0
1 -3060 180 0
1 3060 -150 0
1 -3075 -3076 0
1 3075 165 0
1 -3075 135 0
1 3075 -120 0
1 -3090 3105 0
1 3090 -226 0
1 -3090 240 0
1 -3090 181 0
1 3090 -150 0
1 -3105 -196 0
1 -3105 -165 0
1 3105 -240 0
1 3105 181 0
1 3105 120 0
1 -3105 90 0
1 180 -195 0
1 -195 3045 0
1 195 -3060 0
1 -210 -3075 0
1 210 3030 0
1 -225 3045 0
1 225 -3030 0
1 3000 -3015 0
1 3000 -300 0
1 3015 -165 0
1 3030 -300 0
1 3030 -240 0
1 3030 180 0
1 -3045 240 0
1 -3045 210 0
1 -3045 285 0
1 61 3300 0
1 61 -76 0
1 -61 3345 0
1 -61 -60 0
1 -61 -62 0
1 76 -3300 0
1 -76 -77 0
1 -76 -61 0
1 -91 -3240 0
1 91 106 0
1 -91 3255 0
1 91 -90 0
1 -91 92 0
1 -106 3330 0
1 106 -3270 0
1 106 3285 0
1 -106 3255 0
1 3300 -3301 0
1 -3300 -3315 0
1 3300 -121 0
1 -3315 136 0
1 -3315 76 0
1 -3315 3316 0
1 -3315 182 0
1 3315 -151 0
1 3315 91 0
1 -3330 197 0
1 3330 167 0
1 -3330 -137 0
1 -3330 106 0
1 -3330 -3345 0
1 -3330 -182 0
1 -3330 -61 0
1 3345 -197 0
1 -3345 -167 0
1 -3345 -137 0
1 3345 3346 0
1 3345 122 0
1 121 -3300 0
1 -121 -3240 0
1 -121 -3150 0
1 121 -3315 0
1 136 3270 0
1 136 -3240 0
1 151 -3240 0
1 151 3315 0
1 -151 3285 0
1 -151 -150 0
1 -151 3195 0
1 -166 3300 0
1 -166 165 0
1 -166 3240 0
1 -166 3210 0
1 166 -3180 0
1 166 3150 0
1 166 151 0
1 -166 -3195 0
1 -3240 -256 0
1 3240 211 0
1 3255 -256 0
1 -3255 226 0
1 -3255 -196 0
1 -3255 -3240 0
1 3255 241 0
1 3255 -181 0
1 3255 3256 0
1 3270 166 0
1 3270 106 0
1 3270 -241 0
1 3270 -121 0
1 -3285 -256 0
1 -3285 -197 0
1 -3285 -106 0
1 3285 212 0
1 -3285 -121 0
1 -181 3240 0
1 -181 -3150 0
1 -181 -3120 0
1 -181 -3195 0
1 196 3180 0
1 -196 3120 0
1 -196 -3255 0
1 -196 3225 0
1 -196 -3195 0
1 196 3165 0
1 211 3105 0
1 211 -3180 0
1 -211 -3151 0
1 211 -3255 0
1 -211 3195 0
1 226 -3105 0
1 226 227 0
1 -226 3210 0
1 -226 -3151 0
1 -226 3225 0
1 3180 -196 0
1 -3180 166 0
1 -3180 211 0
1 3180 316 0
1 3195 226 0
1 -3195 -196 0
1 -3195 -151 0
1 3195 255 0
1 -3210 271 0
1 -3210 241 0
1 -3210 151 0
1 3210 -3225 0
1 -3225 -301 0
1 -3225 271 0
1 -3225 211 0
1 -3225 -151 0
1 -3225 286 0
1 240 3136 0
1 -240 3075 0
1 -240 -3090 0
1 240 3060 0
1 240 -3166 0
1 -255 -3105 0
1 255 -3136 0
1 -255 -3151 0
1 -255 -3060 0
1 255 3195 0
1 -270 -3045 0
1 -270 3121 0
1 270 -3091 0
1 -285 -3136 0
1 -285 -270 0
1 285 -3151 0
1 285 -3121 0
1 -285 -3030 0
1 285 3166 0
1 -285 -286 0
1 -3121 3136 0
1 3121 226 0
1 -3121 -330 0
1 3121 300 0
1 3121 3122 0
1 3136 226 0
1 -3136 -211 0
1 -3136 -3135 0
1 3136 -315 0
1 -3136 285 0
1 3151 -331 0
1 3151 -3152 0
1 -3151 -285 0
1 -3166 226 0
1 3166 -361 0
1 3166 3151 0
1 3166 -3165 0
1 3166 376 0
1 300 3015 0
1 -300 -3091 0
1 315 3136 0
1 315 -3106 0
1 315 -3015 0
1 -315 3030 0
1 330 -3106 0
1 -330 3001 0
1 -345 -3106 0
1 345 -330 0
1 -345 3121 0
1 345 -3031 0
1 345 3001 0
1 3061 -360 0
1 3061 435 0
1 -3061 -405 0
1 3061 375 0
1 -3061 345 0
1 3076 -390 0
1 3076 300 0
1 -3076 -3061 0
1 3076 -345 0
1 -3091 420 0
1 3091 -330 0
1 3091 -270 0
1 3091 315 0
1 -3106 3105 0
1 -3106 -270 0
1 -3106 -3091 0
1 -3106 406 0
1 -3106 -345 0
1 360 3031 0
1 -375 -3061 0
1 390 -3061 0
1 -405 3076 0
1 3001 330 0
1 3001 -375 0
1 -3016 -3015 0
1 3016 -360 0
1 3016 330 0
1 3016 405 0
1 3016 -345 0
1 3016 3001 0
1 3031 -420 0
1 3031 495 0
1 -3046 -450 0
1 -3046 -420 0
1 -3046 -3047 0
1 -3046 -330 0
1 -3046 405 0
1 3046 345 0
1 -62 3495 0
1 62 -77 0
1 62 -3480 0
1 -77 3495 0
1 77 76 0
1 -92 -3450 0
1 92 91 0
1 -107 3465 0
1 107 3510 0
1 -107 3480 0
1 3480 3481 0
1 -3480 -92 0
1 3480 62 0
1 3495 167 0
1 -3495 -107 0
1 3495 -122 0
1 -3510 -3525 0
1 3525 -3526 0
1 -3525 -107 0
1 3525 -77 0
1 -122 -3345 0
1 -122 3420 0
1 137 3450 0
1 137 -3420 0
1 -152 -167 0
1 152 -3465 0
1 152 -151 0
1 -152 3480 0
1 -167 -3360 0
1 -167 -3465 0
1 167 3450 0
1 -3420 137 0
1 3420 3435 0
1 3420 -242 0
1 3420 -152 0
1 -3435 -3436 0
1 3435 -212 0
1 3435 -3420 0
1 -3435 -122 0
1 3450 257 0
1 -3450 -107 0
1 3450 3451 0
1 -3465 -257 0
1 3465 137 0
1 -3465 -107 0
1 -3465 242 0
1 3465 92 0
1 -182 3330 0
1 -182 3315 0
1 -182 -3285 0
1 -182 -3390 0
1 197 3360 0
1 -197 3285 0
1 197 182 0
1 212 -3435 0
1 -212 3375 0
1 212 -211 0
1 212 -3316 0
1 -227 -226 0
1 227 -3346 0
1 -227 -212 0
1 -227 3316 0
1 227 3420 0
1 3360 -271 0
1 -3360 -317 0
1 -3375 302 0
1 -3390 -3391 0
1 3390 -167 0
1 -3390 272 0
1 3390 212 0
1 3390 -182 0
1 -3390 -152 0
1 3405 227 0
1 -3405 197 0
1 -241 -3360 0
1 -241 -3301 0
1 241 3375 0
1 241 -3346 0
1 256 -3331 0
1 256 -3240 0
1 -256 3210 0
1 256 3375 0
1 -256 -3285 0
1 256 -3255 0
1 -256 3225 0
1 271 3210 0
1 -271 270 0
1 271 272 0
1 271 -3286 0
1 -286 -3360 0
1 -286 3241 0
1 -286 3316 0
1 3301 227 0
1 3301 3302 0
1 3301 301 0
1 -3301 -271 0
1 3316 256 0
1 3316 301 0
1 3331 -3332 0
1 -3331 -332 0
1 -3331 271 0
1 3331 212 0
1 3331 -347 0
1 3331 -317 0
1 3346 -256 0
1 3346 227 0
1 -3346 -3331 0
1 -3346 -241 0
1 -3346 -3347 0
1 3346 -347 0
1 -3346 317 0
1 3346 -286 0
1 301 -3241 0
1 301 3256 0
1 -301 -316 0
1 -316 -3241 0
1 316 3180 0
1 316 -301 0
1 331 3226 0
1 331 3241 0
1 346 -3316 0
1 346 3256 0
1 346 -347 0
1 -3241 -3256 0
1 -3241 391 0
1 -3241 -271 0
1 3241 436 0
1 -3241 406 0
1 -3241 346 0
1 -3241 -316 0
1 3256 -301 0
1 3256 -436 0
1 3256 -3255 0
1 3256 376 0
1 3256 -286 0
1 -3271 421 0
1 -3271 3270 0
1 3271 -407 0
1 3271 286 0
1 -3286 392 0
1 -3286 -3285 0
1 361 3106 0
1 -361 -362 0
1 376 3106 0
1 -376 -3211 0
1 376 3121 0
1 -376 3226 0
1 391 -3241 0
1 391 -3152 0
1 -391 -3091 0
1 391 406 0
1 406 -3106 0
1 406 3241 0
1 -406 3152 0
1 -406 407 0
1 -406 -3226 0
1 406 -3196 0
1 -3181 391 0
1 -3181 -3180 0
1 3181 465 0
1 3181 -406 0
1 -3181 3196 0
1 3196 331 0
1 -3196 -435 0
1 3211 -451 0
1 3211 -436 0
1 -3211 -346 0
1 3226 421 0
1 3226 391 0
1 -3226 -361 0
1 -3226 331 0
1 3226 -3211 0
1 3226 376 0
1 420 3076 0
1 -420 -3046 0
1 -420 -3152 0
1 -420 -3031 0
1 -435 3106 0
1 -435 3076 0
1 435 -3181 0
1 435 -3061 0
1 450 -3077 0
1 450 -3181 0
1 -450 3152 0
1 -450 -465 0
1 450 -3122 0
1 450 3062 0
1 450 -3031 0
1 -450 3167 0
1 465 -466 0
1 -465 -3031 0
1 -3122 556 0
1 -3122 525 0
1 -3122 495 0
1 3122 -435 0
1 -3122 541 0
1 -3122 510 0
1 -3137 480 0
1 3137 -420 0
1 3137 525 0
1 -3137 -465 0
1 3137 -406 0
1 -3152 -481 0
1 3152 -450 0
1 3152 556 0
1 3152 -541 0
1 3152 -511 0
1 3167 420 0
1 -3167 -391 0
1 -3167 556 0
1 -3167 -496 0
1 -480 481 0
1 480 3107 0
1 -480 -3077 0
1 480 3122 0
1 -480 3092 0
1 480 -3062 0
1 -495 480 0
1 -495 -3016 0
1 495 -3092 0
1 510 3107 0
1 -510 -3122 0
1 510 3092 0
1 -510 3032 0
1 -510 -511 0
1 525 -3077 0
1 525 -3047 0
1 525 -526 0
1 525 3032 0
1 -525 3002 0
1 3062 -510 0
1 -3077 -450 0
1 3092 -450 0
1 -3092 495 0
1 3092 510 0
1 -3107 556 0
1 3107 -525 0
1 3107 -495 0
1 -3107 -465 0
1 3107 510 0
1 -540 -3047 0
1 540 -541 0
1 555 -3062 0
1 570 -3047 0
1 570 -3032 0
1 570 571 0
1 -3002 -3001 0
1 -3002 -540 0
1 -3002 510 0
1 -3017 -3002 0
1 -3017 -3016 0
1 -3017 -570 0
1 3017 -510 0
1 -3032 510 0
1 3047 3046 0
1 -3047 -585 0
1 -3047 -555 0
1 242 -3435 0
1 -242 3420 0
1 257 3496 0
1 -257 -3405 0
1 -257 242 0
1 257 3450 0
1 257 3390 0
1 -272 -3481 0
1 -272 3451 0
1 272 -287 0
1 -287 3526 0
1 287 3466 0
1 -287 3481 0
1 287 -3451 0
1 3481 -257 0
1 -3481 3480 0
1 -3481 -347 0
1 3481 317 0
1 3496 257 0
1 3496 -332 0
1 3496 -3481 0
1 3511 -257 0
1 -3511 -3512 0
1 -3526 3525 0
1 -3526 -272 0
1 -302 -3466 0
1 -302 -3436 0
1 302 3451 0
1 302 -317 0
1 -317 -3405 0
1 317 -316 0
1 317 -3421 0
1 332 -3406 0
1 -332 3451 0
1 332 347 0
1 -332 3421 0
1 347 -3331 0
1 347 3481 0
1 347 346 0
1 -347 3451 0
1 -3421 422 0
1 -3421 -362 0
1 -3421 437 0
1 -3421 -3420 0
1 3421 -317 0
1 -3436 332 0
1 -3436 272 0
1 3436 -437 0
1 3451 3450 0
1 -3451 -272 0
1 -3451 347 0
1 -3466 -422 0
1 3466 3465 0
1 -3466 3451 0
1 -3466 347 0
1 362 3271 0
1 362 -361 0
1 -362 377 0
1 -362 3421 0
1 377 3361 0
1 377 3301 0
1 377 -3436 0
1 -392 3406 0
1 -392 407 0
1 407 392 0
1 407 3436 0
1 407 406 0
1 -407 -3421 0
1 407 3391 0
1 -3361 -332 0
1 3361 -3376 0
1 -3361 436 0
1 3361 -377 0
1 3376 -436 0
1 3376 -377 0
1 3376 347 0
1 -3391 -3392 0
1 -3391 -482 0
1 -3391 452 0
1 3391 422 0
1 3391 -392 0
1 -3391 377 0
1 3391 -3390 0
1 3406 -332 0
1 3406 3407 0
1 -3406 467 0
1 3406 437 0
1 3406 407 0
1 -3406 3391 0
1 -421 3241 0
1 421 3347 0
1 436 -3376 0
1 -451 -452 0
1 -451 3211 0
1 -451 -3376 0
1 -451 -3287 0
1 -451 -3226 0
1 -466 -3361 0
1 466 -3302 0
1 466 3376 0
1 466 -3317 0
1 466 -3257 0
1 -466 -3226 0
1 3302 3301 0
1 3302 -557 0
1 3302 407 0
1 -3317 496 0
1 -3317 -466 0
1 -3317 407 0
1 3332 512 0
1 -3332 482 0
1 3332 -451 0
1 3332 392 0
1 3332 527 0
1 3332 466 0
1 -3332 -407 0
1 3347 -451 0
1 -3347 527 0
1 3347 497 0
1 3347 -466 0
1 3347 -436 0
1 -3347 -407 0
1 481 -3272 0
1 481 -3211 0
1 -481 3257 0
1 -481 -3196 0
1 496 -3272 0
1 -496 3242 0
1 496 -3211 0
1 -496 3287 0
1 -511 526 0
1 -511 3182 0
1 511 3152 0
1 -511 3287 0
1 511 3257 0
1 511 3227 0
1 526 -525 0
1 -526 -527 0
1 526 3197 0
1 526 -3167 0
1 3242 481 0
1 3242 -3241 0
1 -3257 481 0
1 3257 -556 0
1 3257 526 0
1 3257 541 0
1 -3257 -511 0
1 -3272 -451 0
1 -3272 -466 0
1 3287 3272 0
1 3287 587 0
1 -3287 557 0
1 3287 496 0
1 -3287 -572 0
1 541 3107 0
1 541 -3152 0
1 541 -3257 0
1 -541 -3227 0
1 541 -3167 0
1 -556 557 0
1 -556 3182 0
1 556 -3167 0
1 -571 3182 0
1 -571 3257 0
1 -571 -570 0
1 571 3227 0
1 3182 -586 0
1 3182 -3181 0
1 -3182 571 0
1 -3182 541 0
1 -3182 -511 0
1 3197 556 0
1 -3197 526 0
1 3197 -3182 0
1 -3197 3196 0
1 3212 -556 0
1 -3212 -526 0
1 -3227 -556 0
1 3227 541 0
1 3227 -511 0
1 -422 3497 0
1 -422 -3421 0
1 -422 -3391 0
1 437 -3466 0
1 -437 3436 0
1 -452 -3527 0
1 -452 -3437 0
1 452 -3406 0
1 452 -467 0
1 467 -3527 0
1 -467 3406 0
1 -467 466 0
1 -467 -3482 0
1 -467 3422 0
1 -467 -3391 0
1 -3482 527 0
1 3497 527 0
1 -3497 -467 0
1 -3497 -437 0
1 -3497 3482 0
1 3512 -452 0
1 -3512 422 0
1 3512 467 0
1 3512 437 0
1 -3527 467 0
1 -3527 437 0
1 482 3347 0
1 497 3437 0
1 497 3347 0
1 497 3482 0
1 497 3391 0
1 512 -3332 0
1 -512 3347 0
1 512 -3482 0
1 -512 3422 0
1 527 3392 0
1 527 3497 0
1 527 3437 0
1 527 3377 0
1 -527 3347 0
1 -527 3482 0
1 -527 -3422 0
1 3422 -512 0
1 -3422 -587 0
1 -3422 -557 0
1 3437 512 0
1 3437 467 0
1 3452 512 0
1 3452 452 0
1 3467 -512 0
1 3467 -3466 0
1 -3467 467 0
1 3467 3452 0
1 557 -3392 0
1 -557 3332 0
1 -557 3437 0
1 -557 3377 0
1 -557 -3347 0
1 572 3437 0
1 572 3407 0
1 -572 571 0
1 587 586 0
1 587 3377 0
1 -3362 587 0
1 -3362 -572 0
1 -3377 -557 0
1 -3377 3376 0
1 3392 512 0
1 3392 557 0
1 3392 572 0
1 -3407 -512 0
1 3407 -3392 0
1 3407 587 0
1 -3407 -557 0
1 3407 -572 0
